% demand
num_movements = 14;
loading_factor = [1950, 1150, 1000, 2000, 900, 2000, 1700, 1300, 1400, 1500, 1000, 1900, 2000, 800];
pickup_time = [0, 0, 0, 0, 0, 2, 3, 3, 5, 7, 8, 8, 8, 8];
delivery_time = [2, 1, 2, 5, 1, 6, 6, 11, 7, 8, 11, 11, 11, 11];

% transporter definition
total_capacity = 7000;
num_decks = 3;
capacity = [3000, 1000, 3000];

% ways out of decks
num_ways_out = 1;
paths_out = array3d(decks, ways_out, decks, [
% ways out of deck d1
2, 3, 0, 

% ways out of deck d2
3, 0, 0, 

% ways out of deck d3
0, 0, 0,	

]);

